PROBLEM NAME: eil51_n20
KNAPSACK DATA TYPE: uncorrelated
DIMENSION: 20
NUMBER OF ITEMS: 19
CAPACITY OF KNAPSACK: 955
MIN SPEED: 0.1
MAX SPEED: 1
RENTING RATIO: 4.69
EDGE_WEIGHT_TYPE: CEIL_2D
NODE_COORD_SECTION	(INDEX, X, Y):
1	20	26
2	17	63
3	31	32
4	5	25
5	36	16
6	27	23
7	13	13
8	57	58
9	62	42
10	27	68
11	43	67
12	46	10
13	61	33
14	32	22
15	10	17
16	5	64
17	30	15
18	39	10
19	32	39
20	30	40
ITEMS SECTION	(INDEX, PROFIT, WEIGHT, ASSIGNED NODE NUMBER):
1	994	367	4
2	992	421	15
3	815	845	7
4	791	9	17
5	766	882	5
6	667	122	18
7	649	322	12
8	598	94	13
9	544	574	9
10	506	326	8
11	457	43	11
12	446	955	10
13	422	252	2
14	416	248	16
15	359	901	20
16	334	715	19
17	237	795	3
18	94	485	14
19	7	738	6
